<?xml version = "1.0" standalone="yes"?>
<!-- This file has been generated by DOcplex version 2.23.222  -->
<CPLEXSolution version="1.0">
 <header
   problemName="CVRP"
   objectiveValue="10221.2"
  />
 <variables>
  <variable name="x_0_1" index="0" value="1.00000"/>
  <variable name="x_0_3" index="2" value="1.00000"/>
  <variable name="x_0_4" index="3" value="1.00000"/>
  <variable name="x_0_8" index="7" value="1.00000"/>
  <variable name="x_0_9" index="8" value="1.00000"/>
  <variable name="x_0_10" index="9" value="1.00000"/>
  <variable name="x_0_11" index="10" value="1.00000"/>
  <variable name="x_0_13" index="12" value="1.00000"/>
  <variable name="x_0_14" index="13" value="1.00000"/>
  <variable name="x_1_7" index="20" value="1.00000"/>
  <variable name="x_2_0" index="28" value="1.00000"/>
  <variable name="x_3_0" index="42" value="1.00000"/>
  <variable name="x_4_0" index="56" value="1.00000"/>
  <variable name="x_5_0" index="70" value="1.00000"/>
  <variable name="x_6_0" index="84" value="1.00000"/>
  <variable name="x_7_0" index="98" value="1.00000"/>
  <variable name="x_8_0" index="112" value="1.00000"/>
  <variable name="x_9_2" index="128" value="1.00000"/>
  <variable name="x_10_5" index="145" value="1.00000"/>
  <variable name="x_11_12" index="165" value="1.00000"/>
  <variable name="x_12_0" index="168" value="1.00000"/>
  <variable name="x_13_0" index="182" value="1.00000"/>
  <variable name="x_14_6" index="202" value="1.00000"/>
  <variable name="u_1" index="210" value="5.00000"/>
  <variable name="u_2" index="211" value="18.00000"/>
  <variable name="u_3" index="212" value="17.00000"/>
  <variable name="u_4" index="213" value="19.00000"/>
  <variable name="u_5" index="214" value="10.00000"/>
  <variable name="u_6" index="215" value="17.00000"/>
  <variable name="u_7" index="216" value="21.00000"/>
  <variable name="u_8" index="217" value="21.00000"/>
  <variable name="u_9" index="218" value="12.00000"/>
  <variable name="u_10" index="219" value="9.00000"/>
  <variable name="u_11" index="220" value="15.00000"/>
  <variable name="u_12" index="221" value="21.00000"/>
  <variable name="u_13" index="222" value="15.00000"/>
  <variable name="u_14" index="223" value="16.00000"/>
 </variables>
</CPLEXSolution>
